\* MinCostFlowTest *\
Minimize
OBJ: cost
Subject To
_C1: TClass1=T + TClass1=T_C017557 + TClass1=T_C017558 + TClass1=T_C017561
 + TClass1=T_C017562 + TClass1=T_C017563 + TClass1=T_C017565
 + TClass1=T_C017566 + TClass1=T_C017568 + TClass1=T_C017573
 + TClass1=T_C017592 + TClass1=T_C017593 + TClass1=T_C017595
 + TClass1=T_C017597 + TClass1=T_C017598 + TClass1=T_C017599
 + TClass1=T_C017600 + TClass1=T_C017602 + TClass1=T_C017604
 + TClass1=T_C017608 + TClass1=T_C017610 + TClass1=T_C017611
 + TClass1=T_C017612 + TClass1=T_C017614 + TClass1=T_C017615
 + TClass1=T_C017616 + TClass1=T_C017618 + TClass1=T_C017619
 + TClass1=T_C017620 + TClass1=T_C017621 + TClass1=T_C017622
 + TClass1=T_C017624 + TClass1=T_C017625 + TClass1=T_C017627
 + TClass1=T_C017630 + TClass1=T_C017631 + TClass1=T_C017632
 + TClass1=T_C017634 + TClass1=T_C017635 + TClass1=T_C017636
 + TClass1=T_C017637 + TClass1=T_C017638 + TClass1=T_C017639
 + TClass1=T_C017643 + TClass1=T_C017644 + TClass1=T_C017645
 + TClass1=T_C017646 + TClass1=T_C017647 + TClass1=T_C040754
 + TClass1=T_C040772 + TClass1=T_C040773 + TClass1=T_C040775
 + TClass1=T_C040776 + TClass1=T_C040778 + TClass1=T_C040779
 + TClass1=T_C040780 + TClass1=T_C040784 + TClass1=T_C040786
 + TClass1=T_C040787 + TClass1=T_C040788 + TClass1=T_C040789
 + TClass1=T_C040790 + TClass1=T_C040791 + TClass1=T_C040792
 + TClass1=T_C040793 + TClass1=T_C040797 + TClass1=T_C040799
 + TClass1=T_C040800 + TClass1=T_C040801 + TClass1=T_C040808 = 69
_C10: 2 TClass1=T_C017616 - T_C017616=T - T_C017616=T_C017616^0 = 0
_C100: T_C017558=T_C017558^0 - T_C017558^0=C_1598^0 = 0
_C101: T_C017620=T_C017620^0 - T_C017620^0=C_1601^0 = 0
_C102: T_C040788=T_C040788^0 - T_C040788^0=C_802^0 = 0
_C103: T_C017614=T_C017614^0 - T_C017614^0=C_1600^0 = 0
_C104: T_C040779=T_C040779^0 - T_C040779^0=C_803^0 = 0
_C105: T_C040784=T_C040784^0 - T_C040784^0=C_801^0 = 0
_C106: T_C040780=T_C040780^0 - T_C040780^0=C_803^0 = 0
_C107: T_C040778=T_C040778^0 - T_C040778^0=C_803^0 = 0
_C108: T_C017636=T_C017636^0 = 0
_C109: T_C017639=T_C017639^0 = 0
_C11: 2 TClass1=T_C017614 - T_C017614=T - T_C017614=T_C017614^0 = 0
_C110: T_C017612=T_C017612^0 - T_C017612^0=C_1597^0 = 0
_C111: T_C017593=T_C017593^0 = 0
_C112: T_C040787=T_C040787^0 - T_C040787^0=C_803^0 = 0
_C113: T_C040797=T_C040797^0 - T_C040797^0=C_803^0 = 0
_C114: T_C017632=T_C017632^0 - T_C017632^0=C_1599^0 = 0
_C115: T_C017592=T_C017592^0 = 0
_C116: T_C017630=T_C017630^0 - T_C017630^0=C_3^0 = 0
_C117: T_C017631=T_C017631^0 - T_C017631^0=C_2^0 - T_C017631^0=C_3^0 = 0
_C118: T_C017643=T_C017643^0 - T_C017643^0=C_799^0 = 0
_C119: T_C040754=T_C040754^0 = 0
_C12: 2 TClass1=T_C017615 - T_C017615=T - T_C017615=T_C017615^0 = 0
_C120: T_C017573=T_C017573^0 = 0
_C121: T_C017610=T_C017610^0 - T_C017610^0=C_1597^0 - T_C017610^0=C_1598^0 = 0
_C122: T_C017595=T_C017595^0 - T_C017595^0=C_1598^0 = 0
_C123: T_C017611=T_C017611^0 - T_C017611^0=C_1600^0 = 0
_C124: T_C017645=T_C017645^0 = 0
_C125: T_C017604=T_C017604^0 - T_C017604^0=C_1600^0 = 0
_C126: T_C017618=T_C017618^0 - T_C017618^0=C_3^0 - T_C017618^0=C_4^0 = 0
_C127: T_C017644=T_C017644^0 = 0
_C128: T_C017619=T_C017619^0 = 0
_C129: T_C017635=T_C017635^0 - T_C017635^0=C_2^0 = 0
_C13: 2 TClass1=T_C017612 - T_C017612=T - T_C017612=T_C017612^0 = 0
_C130: T_C040791=T_C040791^0 - T_C040791^0=C_803^0 = 0
_C131: T_C017597=T_C017597^0 - T_C017597^0=C_1598^0 = 0
_C132: T_C040790=T_C040790^0 - T_C040790^0=C_803^0 = 0
_C133: T_C017647=T_C017647^0 = 0
_C134: T_C017634=T_C017634^0 = 0
_C135: T_C017646=T_C017646^0 = 0
_C136: T_C017561=T_C017561^0 - T_C017561^0=C_3^0 = 0
_C137: T_C017637=T_C017637^0 = 0
_C138: T_C017568=T_C017568^0 - T_C017568^0=C_1600^0 - T_C017568^0=C_1601^0 = 0
_C139: T_C040801=T_C040801^0 = 0
_C14: 2 TClass1=T_C017639 - T_C017639=T - T_C017639=T_C017639^0 = 0
_C140: C_1^0=C_1 = 0
_C141: - C_4^0=C_4 + T_C017599^0=C_4^0 + T_C017600^0=C_4^0 + T_C017602^0=C_4^0
 + T_C017618^0=C_4^0 = 0
_C142: - C_1597^0=C_1597 + T_C017562^0=C_1597^0 + T_C017610^0=C_1597^0
 + T_C017612^0=C_1597^0 + T_C017616^0=C_1597^0 = 0
_C143: - C_5^0=C_5 + T_C017608^0=C_5^0 = 0
_C144: - C_802^0=C_802 + T_C040788^0=C_802^0 + T_C040789^0=C_802^0 = 0
_C145: - C_1598^0=C_1598 + T_C017558^0=C_1598^0 + T_C017595^0=C_1598^0
 + T_C017597^0=C_1598^0 + T_C017610^0=C_1598^0 = 0
_C146: - C_1601^0=C_1601 + T_C017568^0=C_1601^0 + T_C017620^0=C_1601^0
 + T_C017621^0=C_1601^0 = 0
_C147: - C_799^0=C_799 + T_C017643^0=C_799^0 = 0
_C148: - C_3^0=C_3 + T_C017561^0=C_3^0 + T_C017616^0=C_3^0 + T_C017618^0=C_3^0
 + T_C017624^0=C_3^0 + T_C017625^0=C_3^0 + T_C017630^0=C_3^0
 + T_C017631^0=C_3^0 = 0
_C149: - C_800^0=C_800 + T_C040793^0=C_800^0 = 0
_C15: 2 TClass1=T_C017610 - T_C017610=T - T_C017610=T_C017610^0 = 0
_C150: - C_803^0=C_803 + T_C040772^0=C_803^0 + T_C040778^0=C_803^0
 + T_C040779^0=C_803^0 + T_C040780^0=C_803^0 + T_C040787^0=C_803^0
 + T_C040790^0=C_803^0 + T_C040791^0=C_803^0 + T_C040797^0=C_803^0
 + T_C040799^0=C_803^0 + T_C040800^0=C_803^0 = 0
_C151: - C_1599^0=C_1599 + T_C017562^0=C_1599^0 + T_C017563^0=C_1599^0
 + T_C017566^0=C_1599^0 + T_C017627^0=C_1599^0 + T_C017632^0=C_1599^0 = 0
_C152: - C_1600^0=C_1600 + T_C017568^0=C_1600^0 + T_C017604^0=C_1600^0
 + T_C017611^0=C_1600^0 + T_C017614^0=C_1600^0 + T_C017615^0=C_1600^0
 + T_C017622^0=C_1600^0 = 0
_C153: - C_801^0=C_801 + T_C040784^0=C_801^0 = 0
_C154: - C_2^0=C_2 + T_C017565^0=C_2^0 + T_C017631^0=C_2^0 + T_C017635^0=C_2^0
 = 0
_C155: - 1000 TClass1=T - 1000000 T_C017557=T - 1000000 T_C017558=T
 - 1000000 T_C017561=T - 1000000 T_C017562=T - 1000000 T_C017563=T
 - 1000000 T_C017565=T - 1000000 T_C017566=T - 1000000 T_C017568=T
 - 1000000 T_C017573=T - 1000000 T_C017592=T - 1000000 T_C017593=T
 - 1000000 T_C017595=T - 1000000 T_C017597=T - 1000000 T_C017598=T
 - 1000000 T_C017599=T - 1000000 T_C017600=T - 1000000 T_C017602=T
 - 1000000 T_C017604=T - 1000000 T_C017608=T - 1000000 T_C017610=T
 - 1000000 T_C017611=T - 1000000 T_C017612=T - 1000000 T_C017614=T
 - 1000000 T_C017615=T - 1000000 T_C017616=T - 1000000 T_C017618=T
 - 1000000 T_C017619=T - 1000000 T_C017620=T - 1000000 T_C017621=T
 - 1000000 T_C017622=T - 1000000 T_C017624=T - 1000000 T_C017625=T
 - 1000000 T_C017627=T - 1000000 T_C017630=T - 1000000 T_C017631=T
 - 1000000 T_C017632=T - 1000000 T_C017634=T - 1000000 T_C017635=T
 - 1000000 T_C017636=T - 1000000 T_C017637=T - 1000000 T_C017638=T
 - 1000000 T_C017639=T - 1000000 T_C017643=T - 1000000 T_C017644=T
 - 1000000 T_C017645=T - 1000000 T_C017646=T - 1000000 T_C017647=T
 - 1000000 T_C040754=T - 1000000 T_C040772=T - 1000000 T_C040773=T
 - 1000000 T_C040775=T - 1000000 T_C040776=T - 1000000 T_C040778=T
 - 1000000 T_C040779=T - 1000000 T_C040780=T - 1000000 T_C040784=T
 - 1000000 T_C040786=T - 1000000 T_C040787=T - 1000000 T_C040788=T
 - 1000000 T_C040789=T - 1000000 T_C040790=T - 1000000 T_C040791=T
 - 1000000 T_C040792=T - 1000000 T_C040793=T - 1000000 T_C040797=T
 - 1000000 T_C040799=T - 1000000 T_C040800=T - 1000000 T_C040801=T
 - 1000000 T_C040808=T + cost = 0
_C16: 2 TClass1=T_C017611 - T_C017611=T - T_C017611=T_C017611^0 = 0
_C17: 2 TClass1=T_C017561 - T_C017561=T - T_C017561=T_C017561^0 = 0
_C18: 2 TClass1=T_C017562 - T_C017562=T - T_C017562=T_C017562^0 = 0
_C19: 2 TClass1=T_C017563 - T_C017563=T - T_C017563=T_C017563^0 = 0
_C2: 2 TClass1=T_C017634 - T_C017634=T - T_C017634=T_C017634^0 = 0
_C20: 2 TClass1=T_C017565 - T_C017565=T - T_C017565=T_C017565^0 = 0
_C21: 2 TClass1=T_C017566 - T_C017566=T - T_C017566=T_C017566^0 = 0
_C22: 2 TClass1=T_C017568 - T_C017568=T - T_C017568=T_C017568^0 = 0
_C23: 2 TClass1=T_C040793 - T_C040793=T - T_C040793=T_C040793^0 = 0
_C24: 2 TClass1=T_C040792 - T_C040792=T - T_C040792=T_C040792^0 = 0
_C25: 2 TClass1=T_C040791 - T_C040791=T - T_C040791=T_C040791^0 = 0
_C26: 2 TClass1=T_C040790 - T_C040790=T - T_C040790=T_C040790^0 = 0
_C27: 2 TClass1=T_C040787 - T_C040787=T - T_C040787=T_C040787^0 = 0
_C28: 2 TClass1=T_C017632 - T_C017632=T - T_C017632=T_C017632^0 = 0
_C29: 2 TClass1=T_C040797 - T_C040797=T - T_C040797=T_C040797^0 = 0
_C3: 2 TClass1=T_C017635 - T_C017635=T - T_C017635=T_C017635^0 = 0
_C30: 2 TClass1=T_C017599 - T_C017599=T - T_C017599=T_C017599^0 = 0
_C31: 2 TClass1=T_C017598 - T_C017598=T - T_C017598=T_C017598^0 = 0
_C32: 2 TClass1=T_C017595 - T_C017595=T - T_C017595=T_C017595^0 = 0
_C33: 2 TClass1=T_C017597 - T_C017597=T - T_C017597=T_C017597^0 = 0
_C34: 2 TClass1=T_C017593 - T_C017593=T - T_C017593=T_C017593^0 = 0
_C35: 2 TClass1=T_C017592 - T_C017592=T - T_C017592=T_C017592^0 = 0
_C36: 2 TClass1=T_C040786 - T_C040786=T - T_C040786=T_C040786^0 = 0
_C37: 2 TClass1=T_C017622 - T_C017622=T - T_C017622=T_C017622^0 = 0
_C38: 2 TClass1=T_C017621 - T_C017621=T - T_C017621=T_C017621^0 = 0
_C39: 2 TClass1=T_C017620 - T_C017620=T - T_C017620=T_C017620^0 = 0
_C4: 2 TClass1=T_C017636 - T_C017636=T - T_C017636=T_C017636^0 = 0
_C40: 2 TClass1=T_C017627 - T_C017627=T - T_C017627=T_C017627^0 = 0
_C41: 2 TClass1=T_C017608 - T_C017608=T - T_C017608=T_C017608^0 = 0
_C42: 2 TClass1=T_C017625 - T_C017625=T - T_C017625=T_C017625^0 = 0
_C43: 2 TClass1=T_C017624 - T_C017624=T - T_C017624=T_C017624^0 = 0
_C44: 2 TClass1=T_C017604 - T_C017604=T - T_C017604=T_C017604^0 = 0
_C45: 2 TClass1=T_C017600 - T_C017600=T - T_C017600=T_C017600^0 = 0
_C46: 2 TClass1=T_C017602 - T_C017602=T - T_C017602=T_C017602^0 = 0
_C47: 2 TClass1=T_C040780 - T_C040780=T - T_C040780=T_C040780^0 = 0
_C48: 2 TClass1=T_C017558 - T_C017558=T - T_C017558=T_C017558^0 = 0
_C49: 2 TClass1=T_C017643 - T_C017643=T - T_C017643=T_C017643^0 = 0
_C5: 2 TClass1=T_C017637 - T_C017637=T - T_C017637=T_C017637^0 = 0
_C50: 2 TClass1=T_C017645 - T_C017645=T - T_C017645=T_C017645^0 = 0
_C51: 2 TClass1=T_C017644 - T_C017644=T - T_C017644=T_C017644^0 = 0
_C52: 2 TClass1=T_C017647 - T_C017647=T - T_C017647=T_C017647^0 = 0
_C53: 2 TClass1=T_C017646 - T_C017646=T - T_C017646=T_C017646^0 = 0
_C54: 2 TClass1=T_C040788 - T_C040788=T - T_C040788=T_C040788^0 = 0
_C55: 2 TClass1=T_C040789 - T_C040789=T - T_C040789=T_C040789^0 = 0
_C56: 2 TClass1=T_C017573 - T_C017573=T - T_C017573=T_C017573^0 = 0
_C57: 2 TClass1=T_C017557 - T_C017557=T - T_C017557=T_C017557^0 = 0
_C58: 2 TClass1=T_C040800 - T_C040800=T - T_C040800=T_C040800^0 = 0
_C59: 2 TClass1=T_C017638 - T_C017638=T - T_C017638=T_C017638^0 = 0
_C6: 2 TClass1=T_C017630 - T_C017630=T - T_C017630=T_C017630^0 = 0
_C60: 2 TClass1=T_C040808 - T_C040808=T - T_C040808=T_C040808^0 = 0
_C61: 2 TClass1=T_C040799 - T_C040799=T - T_C040799=T_C040799^0 = 0
_C62: 2 TClass1=T_C040779 - T_C040779=T - T_C040779=T_C040779^0 = 0
_C63: 2 TClass1=T_C040778 - T_C040778=T - T_C040778=T_C040778^0 = 0
_C64: 2 TClass1=T_C040754 - T_C040754=T - T_C040754=T_C040754^0 = 0
_C65: 2 TClass1=T_C040775 - T_C040775=T - T_C040775=T_C040775^0 = 0
_C66: 2 TClass1=T_C040784 - T_C040784=T - T_C040784=T_C040784^0 = 0
_C67: 2 TClass1=T_C040801 - T_C040801=T - T_C040801=T_C040801^0 = 0
_C68: 2 TClass1=T_C040776 - T_C040776=T - T_C040776=T_C040776^0 = 0
_C69: 2 TClass1=T_C040773 - T_C040773=T - T_C040773=T_C040773^0 = 0
_C7: 2 TClass1=T_C017631 - T_C017631=T - T_C017631=T_C017631^0 = 0
_C70: 2 TClass1=T_C040772 - T_C040772=T - T_C040772=T_C040772^0 = 0
_C71: T_C017599=T_C017599^0 - T_C017599^0=C_4^0 = 0
_C72: T_C017598=T_C017598^0 = 0
_C73: T_C017621=T_C017621^0 - T_C017621^0=C_1601^0 = 0
_C74: T_C040808=T_C040808^0 = 0
_C75: T_C040799=T_C040799^0 - T_C040799^0=C_803^0 = 0
_C76: T_C040773=T_C040773^0 = 0
_C77: T_C017563=T_C017563^0 - T_C017563^0=C_1599^0 = 0
_C78: T_C017600=T_C017600^0 - T_C017600^0=C_4^0 = 0
_C79: T_C040772=T_C040772^0 - T_C040772^0=C_803^0 = 0
_C8: 2 TClass1=T_C017618 - T_C017618=T - T_C017618=T_C017618^0 = 0
_C80: T_C017627=T_C017627^0 - T_C017627^0=C_1599^0 = 0
_C81: T_C017608=T_C017608^0 - T_C017608^0=C_5^0 = 0
_C82: T_C017562=T_C017562^0 - T_C017562^0=C_1597^0 - T_C017562^0=C_1599^0 = 0
_C83: T_C040793=T_C040793^0 - T_C040793^0=C_800^0 = 0
_C84: T_C040789=T_C040789^0 - T_C040789^0=C_802^0 = 0
_C85: T_C040775=T_C040775^0 = 0
_C86: T_C040792=T_C040792^0 = 0
_C87: T_C017602=T_C017602^0 - T_C017602^0=C_4^0 = 0
_C88: T_C017625=T_C017625^0 - T_C017625^0=C_3^0 = 0
_C89: T_C040776=T_C040776^0 = 0
_C9: 2 TClass1=T_C017619 - T_C017619=T - T_C017619=T_C017619^0 = 0
_C90: T_C017565=T_C017565^0 - T_C017565^0=C_2^0 = 0
_C91: T_C017624=T_C017624^0 - T_C017624^0=C_3^0 = 0
_C92: T_C017622=T_C017622^0 - T_C017622^0=C_1600^0 = 0
_C93: T_C017557=T_C017557^0 = 0
_C94: T_C017616=T_C017616^0 - T_C017616^0=C_1597^0 - T_C017616^0=C_3^0 = 0
_C95: T_C040786=T_C040786^0 = 0
_C96: T_C040800=T_C040800^0 - T_C040800^0=C_803^0 = 0
_C97: T_C017638=T_C017638^0 = 0
_C98: T_C017566=T_C017566^0 - T_C017566^0=C_1599^0 = 0
_C99: T_C017615=T_C017615^0 - T_C017615^0=C_1600^0 = 0
Bounds
0 <= TClass1=T <= 1000000
0 <= T_C017557=T <= 1000000
0 <= T_C017558=T <= 1000000
0 <= T_C017561=T <= 1000000
0 <= T_C017562=T <= 1000000
0 <= T_C017563=T <= 1000000
0 <= T_C017565=T <= 1000000
0 <= T_C017566=T <= 1000000
0 <= T_C017568=T <= 1000000
0 <= T_C017573=T <= 1000000
0 <= T_C017592=T <= 1000000
0 <= T_C017593=T <= 1000000
0 <= T_C017595=T <= 1000000
0 <= T_C017597=T <= 1000000
0 <= T_C017598=T <= 1000000
0 <= T_C017599=T <= 1000000
0 <= T_C017600=T <= 1000000
0 <= T_C017602=T <= 1000000
0 <= T_C017604=T <= 1000000
0 <= T_C017608=T <= 1000000
0 <= T_C017610=T <= 1000000
0 <= T_C017611=T <= 1000000
0 <= T_C017612=T <= 1000000
0 <= T_C017614=T <= 1000000
0 <= T_C017615=T <= 1000000
0 <= T_C017616=T <= 1000000
0 <= T_C017618=T <= 1000000
0 <= T_C017619=T <= 1000000
0 <= T_C017620=T <= 1000000
0 <= T_C017621=T <= 1000000
0 <= T_C017622=T <= 1000000
0 <= T_C017624=T <= 1000000
0 <= T_C017625=T <= 1000000
0 <= T_C017627=T <= 1000000
0 <= T_C017630=T <= 1000000
0 <= T_C017631=T <= 1000000
0 <= T_C017632=T <= 1000000
0 <= T_C017634=T <= 1000000
0 <= T_C017635=T <= 1000000
0 <= T_C017636=T <= 1000000
0 <= T_C017637=T <= 1000000
0 <= T_C017638=T <= 1000000
0 <= T_C017639=T <= 1000000
0 <= T_C017643=T <= 1000000
0 <= T_C017644=T <= 1000000
0 <= T_C017645=T <= 1000000
0 <= T_C017646=T <= 1000000
0 <= T_C017647=T <= 1000000
0 <= T_C040754=T <= 1000000
0 <= T_C040772=T <= 1000000
0 <= T_C040773=T <= 1000000
0 <= T_C040775=T <= 1000000
0 <= T_C040776=T <= 1000000
0 <= T_C040778=T <= 1000000
0 <= T_C040779=T <= 1000000
0 <= T_C040780=T <= 1000000
0 <= T_C040784=T <= 1000000
0 <= T_C040786=T <= 1000000
0 <= T_C040787=T <= 1000000
0 <= T_C040788=T <= 1000000
0 <= T_C040789=T <= 1000000
0 <= T_C040790=T <= 1000000
0 <= T_C040791=T <= 1000000
0 <= T_C040792=T <= 1000000
0 <= T_C040793=T <= 1000000
0 <= T_C040797=T <= 1000000
0 <= T_C040799=T <= 1000000
0 <= T_C040800=T <= 1000000
0 <= T_C040801=T <= 1000000
0 <= T_C040808=T <= 1000000
Generals
TClass1=T
T_C017557=T
T_C017558=T
T_C017561=T
T_C017562=T
T_C017563=T
T_C017565=T
T_C017566=T
T_C017568=T
T_C017573=T
T_C017592=T
T_C017593=T
T_C017595=T
T_C017597=T
T_C017598=T
T_C017599=T
T_C017600=T
T_C017602=T
T_C017604=T
T_C017608=T
T_C017610=T
T_C017611=T
T_C017612=T
T_C017614=T
T_C017615=T
T_C017616=T
T_C017618=T
T_C017619=T
T_C017620=T
T_C017621=T
T_C017622=T
T_C017624=T
T_C017625=T
T_C017627=T
T_C017630=T
T_C017631=T
T_C017632=T
T_C017634=T
T_C017635=T
T_C017636=T
T_C017637=T
T_C017638=T
T_C017639=T
T_C017643=T
T_C017644=T
T_C017645=T
T_C017646=T
T_C017647=T
T_C040754=T
T_C040772=T
T_C040773=T
T_C040775=T
T_C040776=T
T_C040778=T
T_C040779=T
T_C040780=T
T_C040784=T
T_C040786=T
T_C040787=T
T_C040788=T
T_C040789=T
T_C040790=T
T_C040791=T
T_C040792=T
T_C040793=T
T_C040797=T
T_C040799=T
T_C040800=T
T_C040801=T
T_C040808=T
Binaries
C_1597^0=C_1597
C_1598^0=C_1598
C_1599^0=C_1599
C_1600^0=C_1600
C_1601^0=C_1601
C_1^0=C_1
C_2^0=C_2
C_3^0=C_3
C_4^0=C_4
C_5^0=C_5
C_799^0=C_799
C_800^0=C_800
C_801^0=C_801
C_802^0=C_802
C_803^0=C_803
TClass1=T_C017557
TClass1=T_C017558
TClass1=T_C017561
TClass1=T_C017562
TClass1=T_C017563
TClass1=T_C017565
TClass1=T_C017566
TClass1=T_C017568
TClass1=T_C017573
TClass1=T_C017592
TClass1=T_C017593
TClass1=T_C017595
TClass1=T_C017597
TClass1=T_C017598
TClass1=T_C017599
TClass1=T_C017600
TClass1=T_C017602
TClass1=T_C017604
TClass1=T_C017608
TClass1=T_C017610
TClass1=T_C017611
TClass1=T_C017612
TClass1=T_C017614
TClass1=T_C017615
TClass1=T_C017616
TClass1=T_C017618
TClass1=T_C017619
TClass1=T_C017620
TClass1=T_C017621
TClass1=T_C017622
TClass1=T_C017624
TClass1=T_C017625
TClass1=T_C017627
TClass1=T_C017630
TClass1=T_C017631
TClass1=T_C017632
TClass1=T_C017634
TClass1=T_C017635
TClass1=T_C017636
TClass1=T_C017637
TClass1=T_C017638
TClass1=T_C017639
TClass1=T_C017643
TClass1=T_C017644
TClass1=T_C017645
TClass1=T_C017646
TClass1=T_C017647
TClass1=T_C040754
TClass1=T_C040772
TClass1=T_C040773
TClass1=T_C040775
TClass1=T_C040776
TClass1=T_C040778
TClass1=T_C040779
TClass1=T_C040780
TClass1=T_C040784
TClass1=T_C040786
TClass1=T_C040787
TClass1=T_C040788
TClass1=T_C040789
TClass1=T_C040790
TClass1=T_C040791
TClass1=T_C040792
TClass1=T_C040793
TClass1=T_C040797
TClass1=T_C040799
TClass1=T_C040800
TClass1=T_C040801
TClass1=T_C040808
T_C017557=T_C017557^0
T_C017558=T_C017558^0
T_C017558^0=C_1598^0
T_C017561=T_C017561^0
T_C017561^0=C_3^0
T_C017562=T_C017562^0
T_C017562^0=C_1597^0
T_C017562^0=C_1599^0
T_C017563=T_C017563^0
T_C017563^0=C_1599^0
T_C017565=T_C017565^0
T_C017565^0=C_2^0
T_C017566=T_C017566^0
T_C017566^0=C_1599^0
T_C017568=T_C017568^0
T_C017568^0=C_1600^0
T_C017568^0=C_1601^0
T_C017573=T_C017573^0
T_C017592=T_C017592^0
T_C017593=T_C017593^0
T_C017595=T_C017595^0
T_C017595^0=C_1598^0
T_C017597=T_C017597^0
T_C017597^0=C_1598^0
T_C017598=T_C017598^0
T_C017599=T_C017599^0
T_C017599^0=C_4^0
T_C017600=T_C017600^0
T_C017600^0=C_4^0
T_C017602=T_C017602^0
T_C017602^0=C_4^0
T_C017604=T_C017604^0
T_C017604^0=C_1600^0
T_C017608=T_C017608^0
T_C017608^0=C_5^0
T_C017610=T_C017610^0
T_C017610^0=C_1597^0
T_C017610^0=C_1598^0
T_C017611=T_C017611^0
T_C017611^0=C_1600^0
T_C017612=T_C017612^0
T_C017612^0=C_1597^0
T_C017614=T_C017614^0
T_C017614^0=C_1600^0
T_C017615=T_C017615^0
T_C017615^0=C_1600^0
T_C017616=T_C017616^0
T_C017616^0=C_1597^0
T_C017616^0=C_3^0
T_C017618=T_C017618^0
T_C017618^0=C_3^0
T_C017618^0=C_4^0
T_C017619=T_C017619^0
T_C017620=T_C017620^0
T_C017620^0=C_1601^0
T_C017621=T_C017621^0
T_C017621^0=C_1601^0
T_C017622=T_C017622^0
T_C017622^0=C_1600^0
T_C017624=T_C017624^0
T_C017624^0=C_3^0
T_C017625=T_C017625^0
T_C017625^0=C_3^0
T_C017627=T_C017627^0
T_C017627^0=C_1599^0
T_C017630=T_C017630^0
T_C017630^0=C_3^0
T_C017631=T_C017631^0
T_C017631^0=C_2^0
T_C017631^0=C_3^0
T_C017632=T_C017632^0
T_C017632^0=C_1599^0
T_C017634=T_C017634^0
T_C017635=T_C017635^0
T_C017635^0=C_2^0
T_C017636=T_C017636^0
T_C017637=T_C017637^0
T_C017638=T_C017638^0
T_C017639=T_C017639^0
T_C017643=T_C017643^0
T_C017643^0=C_799^0
T_C017644=T_C017644^0
T_C017645=T_C017645^0
T_C017646=T_C017646^0
T_C017647=T_C017647^0
T_C040754=T_C040754^0
T_C040772=T_C040772^0
T_C040772^0=C_803^0
T_C040773=T_C040773^0
T_C040775=T_C040775^0
T_C040776=T_C040776^0
T_C040778=T_C040778^0
T_C040778^0=C_803^0
T_C040779=T_C040779^0
T_C040779^0=C_803^0
T_C040780=T_C040780^0
T_C040780^0=C_803^0
T_C040784=T_C040784^0
T_C040784^0=C_801^0
T_C040786=T_C040786^0
T_C040787=T_C040787^0
T_C040787^0=C_803^0
T_C040788=T_C040788^0
T_C040788^0=C_802^0
T_C040789=T_C040789^0
T_C040789^0=C_802^0
T_C040790=T_C040790^0
T_C040790^0=C_803^0
T_C040791=T_C040791^0
T_C040791^0=C_803^0
T_C040792=T_C040792^0
T_C040793=T_C040793^0
T_C040793^0=C_800^0
T_C040797=T_C040797^0
T_C040797^0=C_803^0
T_C040799=T_C040799^0
T_C040799^0=C_803^0
T_C040800=T_C040800^0
T_C040800^0=C_803^0
T_C040801=T_C040801^0
T_C040808=T_C040808^0
End
